
  27    0


   0  14 2 3 5 7 8 9 10 11 12 22 23 24 25 26 
   1   6 20 18 17 15 14 13 
   4   3 19 13 4 
   8   3 21 18 17 
   2   1 6 
   6   2 16 13 
   8   2 20 15 
   2   2 19 13 
   6   2 16 13 
   9   2 15 14 
   1   1 14 
   4   1 13 
   3   1 27
   1   1 27
   6   1 27
   5   1 27
   9   1 27
   4   1 27
   3   1 27
   6   1 27
   3   1 27
   4   1 27
   5   1 27
   1   1 27
   1   1 27
  10   1 27
   0   0 
